c colouring generated by benchmark framework
p edge 1000 49629
v 1 4
v 2 24
v 3 0
v 4 6
v 5 13
v 6 5
v 7 21
v 8 0
v 9 12
v 10 22
v 11 14
v 12 17
v 13 7
v 14 5
v 15 22
v 16 8
v 17 16
v 18 4
v 19 6
v 20 11
v 21 6
v 22 4
v 23 1
v 24 7
v 25 23
v 26 12
v 27 11
v 28 7
v 29 10
v 30 23
v 31 11
v 32 4
v 33 26
v 34 10
v 35 16
v 36 22
v 37 1
v 38 4
v 39 21
v 40 5
v 41 16
v 42 14
v 43 11
v 44 23
v 45 13
v 46 11
v 47 11
v 48 15
v 49 2
v 50 2
v 51 2
v 52 20
v 53 13
v 54 1
v 55 16
v 56 19
v 57 17
v 58 21
v 59 4
v 60 10
v 61 13
v 62 18
v 63 20
v 64 25
v 65 2
v 66 16
v 67 5
v 68 24
v 69 2
v 70 16
v 71 3
v 72 13
v 73 10
v 74 12
v 75 0
v 76 3
v 77 14
v 78 17
v 79 12
v 80 9
v 81 9
v 82 14
v 83 4
v 84 22
v 85 13
v 86 4
v 87 8
v 88 15
v 89 8
v 90 14
v 91 4
v 92 12
v 93 23
v 94 20
v 95 23
v 96 24
v 97 8
v 98 12
v 99 0
v 100 2
v 101 21
v 102 11
v 103 19
v 104 17
v 105 2
v 106 15
v 107 13
v 108 19
v 109 17
v 110 24
v 111 8
v 112 15
v 113 19
v 114 5
v 115 2
v 116 6
v 117 21
v 118 6
v 119 9
v 120 1
v 121 6
v 122 12
v 123 1
v 124 3
v 125 4
v 126 25
v 127 27
v 128 0
v 129 23
v 130 19
v 131 13
v 132 19
v 133 23
v 134 9
v 135 11
v 136 16
v 137 1
v 138 0
v 139 1
v 140 14
v 141 2
v 142 4
v 143 4
v 144 16
v 145 1
v 146 25
v 147 10
v 148 15
v 149 23
v 150 27
v 151 18
v 152 25
v 153 18
v 154 0
v 155 23
v 156 25
v 157 5
v 158 21
v 159 2
v 160 2
v 161 2
v 162 24
v 163 14
v 164 3
v 165 22
v 166 7
v 167 23
v 168 3
v 169 2
v 170 9
v 171 9
v 172 13
v 173 6
v 174 3
v 175 18
v 176 6
v 177 7
v 178 6
v 179 23
v 180 19
v 181 0
v 182 11
v 183 5
v 184 6
v 185 23
v 186 27
v 187 1
v 188 0
v 189 18
v 190 3
v 191 24
v 192 12
v 193 6
v 194 20
v 195 21
v 196 7
v 197 24
v 198 23
v 199 19
v 200 11
v 201 21
v 202 24
v 203 4
v 204 22
v 205 11
v 206 8
v 207 19
v 208 24
v 209 4
v 210 12
v 211 13
v 212 7
v 213 28
v 214 11
v 215 4
v 216 19
v 217 3
v 218 3
v 219 13
v 220 27
v 221 19
v 222 13
v 223 5
v 224 8
v 225 11
v 226 4
v 227 3
v 228 16
v 229 5
v 230 5
v 231 5
v 232 26
v 233 17
v 234 8
v 235 15
v 236 9
v 237 1
v 238 9
v 239 12
v 240 9
v 241 17
v 242 8
v 243 18
v 244 0
v 245 0
v 246 2
v 247 24
v 248 4
v 249 6
v 250 4
v 251 26
v 252 20
v 253 2
v 254 11
v 255 17
v 256 6
v 257 16
v 258 2
v 259 16
v 260 8
v 261 17
v 262 20
v 263 20
v 264 1
v 265 9
v 266 16
v 267 21
v 268 8
v 269 28
v 270 7
v 271 15
v 272 17
v 273 17
v 274 8
v 275 6
v 276 3
v 277 23
v 278 0
v 279 20
v 280 15
v 281 18
v 282 5
v 283 24
v 284 19
v 285 5
v 286 6
v 287 15
v 288 9
v 289 23
v 290 4
v 291 2
v 292 8
v 293 1
v 294 10
v 295 26
v 296 3
v 297 10
v 298 13
v 299 8
v 300 12
v 301 20
v 302 8
v 303 5
v 304 21
v 305 17
v 306 3
v 307 3
v 308 0
v 309 14
v 310 3
v 311 17
v 312 15
v 313 0
v 314 12
v 315 23
v 316 21
v 317 7
v 318 14
v 319 19
v 320 21
v 321 17
v 322 7
v 323 16
v 324 14
v 325 9
v 326 18
v 327 14
v 328 24
v 329 7
v 330 28
v 331 8
v 332 15
v 333 0
v 334 13
v 335 10
v 336 4
v 337 20
v 338 11
v 339 10
v 340 11
v 341 20
v 342 22
v 343 22
v 344 9
v 345 29
v 346 4
v 347 1
v 348 21
v 349 10
v 350 24
v 351 4
v 352 23
v 353 16
v 354 16
v 355 22
v 356 7
v 357 14
v 358 6
v 359 20
v 360 13
v 361 24
v 362 2
v 363 19
v 364 3
v 365 21
v 366 8
v 367 3
v 368 13
v 369 17
v 370 3
v 371 1
v 372 4
v 373 11
v 374 21
v 375 20
v 376 14
v 377 16
v 378 17
v 379 6
v 380 18
v 381 15
v 382 10
v 383 19
v 384 7
v 385 13
v 386 14
v 387 5
v 388 25
v 389 14
v 390 9
v 391 27
v 392 3
v 393 1
v 394 12
v 395 17
v 396 9
v 397 3
v 398 10
v 399 21
v 400 18
v 401 9
v 402 0
v 403 15
v 404 23
v 405 17
v 406 28
v 407 15
v 408 9
v 409 16
v 410 0
v 411 10
v 412 5
v 413 3
v 414 12
v 415 14
v 416 3
v 417 6
v 418 18
v 419 16
v 420 16
v 421 14
v 422 25
v 423 13
v 424 10
v 425 1
v 426 19
v 427 22
v 428 6
v 429 5
v 430 9
v 431 19
v 432 11
v 433 21
v 434 10
v 435 11
v 436 11
v 437 23
v 438 18
v 439 5
v 440 23
v 441 0
v 442 20
v 443 22
v 444 21
v 445 10
v 446 4
v 447 18
v 448 9
v 449 22
v 450 26
v 451 17
v 452 18
v 453 13
v 454 17
v 455 2
v 456 16
v 457 22
v 458 9
v 459 6
v 460 15
v 461 11
v 462 19
v 463 16
v 464 24
v 465 5
v 466 11
v 467 14
v 468 12
v 469 19
v 470 7
v 471 4
v 472 20
v 473 6
v 474 13
v 475 17
v 476 12
v 477 22
v 478 10
v 479 5
v 480 4
v 481 7
v 482 2
v 483 9
v 484 10
v 485 18
v 486 7
v 487 21
v 488 4
v 489 21
v 490 11
v 491 19
v 492 4
v 493 17
v 494 1
v 495 8
v 496 12
v 497 14
v 498 15
v 499 7
v 500 12
v 501 8
v 502 13
v 503 7
v 504 21
v 505 7
v 506 20
v 507 12
v 508 9
v 509 25
v 510 15
v 511 22
v 512 12
v 513 0
v 514 10
v 515 14
v 516 23
v 517 26
v 518 11
v 519 9
v 520 7
v 521 16
v 522 21
v 523 8
v 524 15
v 525 20
v 526 17
v 527 4
v 528 13
v 529 17
v 530 26
v 531 7
v 532 19
v 533 10
v 534 8
v 535 15
v 536 8
v 537 10
v 538 6
v 539 4
v 540 0
v 541 18
v 542 11
v 543 12
v 544 25
v 545 23
v 546 11
v 547 5
v 548 13
v 549 20
v 550 13
v 551 22
v 552 2
v 553 5
v 554 17
v 555 17
v 556 11
v 557 8
v 558 25
v 559 5
v 560 5
v 561 26
v 562 3
v 563 22
v 564 21
v 565 2
v 566 18
v 567 10
v 568 12
v 569 26
v 570 6
v 571 24
v 572 9
v 573 11
v 574 25
v 575 12
v 576 4
v 577 15
v 578 18
v 579 4
v 580 19
v 581 7
v 582 9
v 583 3
v 584 20
v 585 8
v 586 1
v 587 5
v 588 19
v 589 14
v 590 5
v 591 5
v 592 19
v 593 17
v 594 26
v 595 14
v 596 24
v 597 1
v 598 15
v 599 1
v 600 22
v 601 23
v 602 13
v 603 26
v 604 4
v 605 1
v 606 12
v 607 28
v 608 18
v 609 19
v 610 28
v 611 22
v 612 2
v 613 20
v 614 9
v 615 18
v 616 24
v 617 21
v 618 3
v 619 10
v 620 4
v 621 25
v 622 21
v 623 1
v 624 13
v 625 16
v 626 0
v 627 0
v 628 12
v 629 0
v 630 0
v 631 4
v 632 2
v 633 13
v 634 1
v 635 1
v 636 25
v 637 10
v 638 1
v 639 15
v 640 16
v 641 1
v 642 14
v 643 8
v 644 0
v 645 13
v 646 17
v 647 19
v 648 13
v 649 7
v 650 14
v 651 5
v 652 11
v 653 11
v 654 2
v 655 25
v 656 3
v 657 28
v 658 5
v 659 16
v 660 16
v 661 6
v 662 13
v 663 10
v 664 11
v 665 14
v 666 13
v 667 20
v 668 27
v 669 16
v 670 1
v 671 23
v 672 27
v 673 12
v 674 5
v 675 15
v 676 0
v 677 4
v 678 20
v 679 17
v 680 18
v 681 0
v 682 6
v 683 11
v 684 12
v 685 14
v 686 4
v 687 0
v 688 0
v 689 15
v 690 11
v 691 15
v 692 17
v 693 9
v 694 11
v 695 25
v 696 15
v 697 10
v 698 19
v 699 2
v 700 17
v 701 26
v 702 9
v 703 5
v 704 6
v 705 6
v 706 25
v 707 13
v 708 16
v 709 16
v 710 8
v 711 16
v 712 7
v 713 8
v 714 10
v 715 19
v 716 13
v 717 18
v 718 9
v 719 6
v 720 23
v 721 5
v 722 2
v 723 15
v 724 17
v 725 16
v 726 11
v 727 18
v 728 17
v 729 10
v 730 1
v 731 3
v 732 21
v 733 14
v 734 15
v 735 15
v 736 21
v 737 2
v 738 23
v 739 0
v 740 17
v 741 1
v 742 7
v 743 27
v 744 7
v 745 22
v 746 10
v 747 17
v 748 8
v 749 22
v 750 3
v 751 20
v 752 2
v 753 3
v 754 18
v 755 4
v 756 10
v 757 15
v 758 3
v 759 3
v 760 12
v 761 6
v 762 2
v 763 1
v 764 8
v 765 8
v 766 15
v 767 11
v 768 5
v 769 26
v 770 11
v 771 6
v 772 22
v 773 22
v 774 3
v 775 17
v 776 10
v 777 3
v 778 6
v 779 12
v 780 15
v 781 9
v 782 10
v 783 19
v 784 6
v 785 0
v 786 16
v 787 12
v 788 18
v 789 26
v 790 23
v 791 10
v 792 11
v 793 19
v 794 21
v 795 10
v 796 12
v 797 10
v 798 24
v 799 19
v 800 26
v 801 4
v 802 6
v 803 18
v 804 18
v 805 1
v 806 9
v 807 2
v 808 2
v 809 13
v 810 2
v 811 19
v 812 13
v 813 0
v 814 7
v 815 8
v 816 21
v 817 5
v 818 7
v 819 1
v 820 22
v 821 20
v 822 3
v 823 14
v 824 15
v 825 12
v 826 0
v 827 14
v 828 3
v 829 23
v 830 13
v 831 7
v 832 20
v 833 12
v 834 6
v 835 18
v 836 20
v 837 12
v 838 16
v 839 8
v 840 13
v 841 0
v 842 7
v 843 24
v 844 17
v 845 18
v 846 21
v 847 22
v 848 18
v 849 1
v 850 6
v 851 7
v 852 1
v 853 1
v 854 4
v 855 15
v 856 9
v 857 5
v 858 16
v 859 0
v 860 14
v 861 3
v 862 22
v 863 15
v 864 1
v 865 9
v 866 17
v 867 20
v 868 19
v 869 25
v 870 1
v 871 8
v 872 24
v 873 27
v 874 2
v 875 13
v 876 13
v 877 8
v 878 2
v 879 24
v 880 15
v 881 20
v 882 9
v 883 18
v 884 0
v 885 12
v 886 6
v 887 22
v 888 27
v 889 4
v 890 19
v 891 18
v 892 15
v 893 7
v 894 22
v 895 3
v 896 6
v 897 18
v 898 0
v 899 2
v 900 28
v 901 8
v 902 11
v 903 23
v 904 3
v 905 10
v 906 19
v 907 9
v 908 0
v 909 2
v 910 9
v 911 2
v 912 2
v 913 2
v 914 24
v 915 17
v 916 17
v 917 26
v 918 11
v 919 13
v 920 8
v 921 3
v 922 12
v 923 14
v 924 11
v 925 12
v 926 10
v 927 0
v 928 7
v 929 14
v 930 17
v 931 1
v 932 9
v 933 16
v 934 22
v 935 15
v 936 15
v 937 22
v 938 3
v 939 18
v 940 15
v 941 14
v 942 8
v 943 26
v 944 4
v 945 23
v 946 12
v 947 7
v 948 13
v 949 21
v 950 6
v 951 8
v 952 17
v 953 11
v 954 17
v 955 8
v 956 14
v 957 2
v 958 22
v 959 25
v 960 8
v 961 19
v 962 5
v 963 0
v 964 16
v 965 21
v 966 18
v 967 10
v 968 5
v 969 5
v 970 12
v 971 18
v 972 5
v 973 14
v 974 0
v 975 15
v 976 6
v 977 7
v 978 21
v 979 11
v 980 17
v 981 9
v 982 6
v 983 21
v 984 20
v 985 7
v 986 23
v 987 25
v 988 18
v 989 14
v 990 20
v 991 14
v 992 14
v 993 23
v 994 22
v 995 11
v 996 19
v 997 7
v 998 18
v 999 9
v 1000 9
